Data path: /scratch/opt/lxu/CFLG/benchmarks/random_B
Instance: r_40_0.2_148.txt
Result path: /scratch/opt/lxu/CFLG/results/random_B
Solver: Gurobi
Time limit: 7200
Formulation: LEFPAD
Cover: Large
julia --project=. src/main.jl /scratch/opt/lxu/CFLG/benchmarks/random_B r_40_0.2_148.txt /scratch/opt/lxu/CFLG/results/random_B Gurobi 7200 LEFPAD Large
The latest version of Julia in the `release` channel is 1.11.6+0.x64.linux.gnu. You currently have `1.11.4+0.x64.linux.gnu` installed. Run:

  juliaup update

in your terminal shell to install Julia 1.11.6+0.x64.linux.gnu and update the `release` channel to that version.
/scratch/opt/lxu/CFLG/benchmarks/random_B Gurobi 7200.0 /scratch/opt/lxu/CFLG/results/random_B r_40_0.2_148.txt LEFPAD Large
/scratch/opt/lxu/CFLG/benchmarks/random_B/r_40_0.2_148.txt

 read graph
data loaded

problem_graph/original graph: node: 40/40 edge: 148/148 dlt: 1.2270634437055061 break_avg_len: 0.6135317218527531 break_max_len: 0.9866416686465209Vbar/V, Ebar/E(40, 40, 148, 148)
Set parameter TokenServer to value "solice01.zib.de"
Set parameter Threads to value 1
Set parameter OutputFlag to value 1
Gurobi Optimizer version 12.0.1 build v12.0.1rc0 (linux64 - "Debian GNU/Linux 12 (bookworm)")

CPU model: Intel(R) Xeon(R) Gold 5122 CPU @ 3.60GHz, instruction set [SSE2|AVX|AVX2|AVX512]
Thread count: 8 physical cores, 16 logical processors, using up to 1 threads

Non-default parameters:
Threads  1

Optimize a model with 188 rows, 444 columns and 740 nonzeros
Model fingerprint: 0xe561439f
Coefficient statistics:
  Matrix range     [1e+00, 1e+00]
  Objective range  [1e+00, 1e+00]
  Bounds range     [1e+00, 1e+00]
  RHS range        [1e+00, 1e+00]
Presolve time: 0.00s
Presolved: 188 rows, 444 columns, 740 nonzeros

Iteration    Objective       Primal Inf.    Dual Inf.      Time
       0    1.4800000e+02   1.860000e+02   0.000000e+00      0s
     140    4.0000000e+01   0.000000e+00   0.000000e+00      0s

Solved in 140 iterations and 0.00 seconds (0.00 work units)
Optimal objective  4.000000000e+01

User-callback calls 184, time in user-callback 0.01 sec
elapsed CPU time: 1.324333 seconds
Set parameter TokenServer to value "solice01.zib.de"
Set parameter Threads to value 1
Set parameter OutputFlag to value 1
Set parameter MIPGap to value 0.0001
Set parameter TimeLimit to value 7198.675667

 more cuts: false 1.2270634437055061 false
is_attach:trueformulation:LEFPAD0 148 40

 model loaded

Gurobi Optimizer version 12.0.1 build v12.0.1rc0 (linux64 - "Debian GNU/Linux 12 (bookworm)")

CPU model: Intel(R) Xeon(R) Gold 5122 CPU @ 3.60GHz, instruction set [SSE2|AVX|AVX2|AVX512]
Thread count: 8 physical cores, 16 logical processors, using up to 1 threads

Non-default parameters:
TimeLimit  7198.675667
Threads  1

Optimize a model with 28705 rows, 18206 columns and 85431 nonzeros
Model fingerprint: 0xa863be68
Variable types: 9103 continuous, 9103 integer (9103 binary)
Coefficient statistics:
  Matrix range     [1e-04, 1e+00]
  Objective range  [1e+00, 1e+00]
  Bounds range     [3e-01, 1e+00]
  RHS range        [3e-01, 1e+01]
Found heuristic solution: objective 20.0000000
Presolve removed 8613 rows and 1228 columns
Presolve time: 0.52s
Presolved: 20092 rows, 16978 columns, 73775 nonzeros
Variable types: 8416 continuous, 8562 integer (8562 binary)

Root relaxation: objective 1.091718e+00, 15080 iterations, 1.74 seconds (2.97 work units)

    Nodes    |    Current Node    |     Objective Bounds      |     Work
 Expl Unexpl |  Obj  Depth IntInf | Incumbent    BestBd   Gap | It/Node Time

     0     0    1.09172    0  643   20.00000    1.09172  94.5%     -    3s
H    0     0                      18.0000000    1.09172  93.9%     -    3s
     0     0    1.10768    0  896   18.00000    1.10768  93.8%     -    5s
H    0     0                      16.0000000    1.11028  93.1%     -    5s
     0     0    1.12967    0  854   16.00000    1.12967  92.9%     -    7s
H    0     0                      15.0000000    1.12994  92.5%     -    7s
H    0     0                      14.0000000    1.12994  91.9%     -    7s
     0     0    1.13089    0  876   14.00000    1.13089  91.9%     -    7s
     0     0    1.14914    0  910   14.00000    1.14914  91.8%     -    9s
H    0     0                      13.0000000    1.14925  91.2%     -    9s
     0     0    1.15015    0  950   13.00000    1.15015  91.2%     -    9s
     0     0    1.16385    0  915   13.00000    1.16385  91.0%     -   11s
H    0     0                      12.0000000    1.16396  90.3%     -   11s
     0     0    1.16515    0  953   12.00000    1.16515  90.3%     -   12s
     0     0    1.17194    0  931   12.00000    1.17194  90.2%     -   13s
H    0     0                      11.0000000    1.17221  89.3%     -   13s
     0     0    1.17221    0  958   11.00000    1.17221  89.3%     -   13s
     0     0    1.18201    0 1097   11.00000    1.18201  89.3%     -   14s
H    0     0                      10.0000000    1.18210  88.2%     -   14s
     0     0    1.18210    0 1057   10.00000    1.18210  88.2%     -   14s
     0     0    1.19204    0  981   10.00000    1.19204  88.1%     -   15s
     0     0    1.19243    0 1000   10.00000    1.19243  88.1%     -   15s
     0     0    1.19623    0 1080   10.00000    1.19623  88.0%     -   16s
     0     0    1.19645    0 1084   10.00000    1.19645  88.0%     -   16s
     0     0    1.20004    0 1001   10.00000    1.20004  88.0%     -   17s
H    0     0                       9.0000000    1.20012  86.7%     -   17s
     0     0    1.20032    0 1034    9.00000    1.20032  86.7%     -   17s
     0     0    1.20494    0 1032    9.00000    1.20494  86.6%     -   18s
H    0     0                       8.0000000    1.20494  84.9%     -   18s
H    0     0                       7.0000000    1.20494  82.8%     -   18s
H    0     0                       5.0000000    1.20494  75.9%     -   19s
     0     0    1.20546    0 1012    5.00000    1.20546  75.9%     -   19s
     0     0    1.21153    0 1236    5.00000    1.21153  75.8%     -   20s
     0     0    1.21158    0 1242    5.00000    1.21158  75.8%     -   21s
     0     0    1.21690    0  927    5.00000    1.21690  75.7%     -   21s
     0     0    1.21848    0 1021    5.00000    1.21848  75.6%     -   22s
     0     0    1.22011    0 1032    5.00000    1.22011  75.6%     -   22s
     0     0    1.22013    0  988    5.00000    1.22013  75.6%     -   22s
     0     0    1.22090    0 1000    5.00000    1.22090  75.6%     -   23s
     0     0    1.22120    0  960    5.00000    1.22120  75.6%     -   23s
     0     0    1.22168    0 1084    5.00000    1.22168  75.6%     -   24s
     0     0    1.22169    0 1078    5.00000    1.22169  75.6%     -   24s
     0     0    1.22296    0 1117    5.00000    1.22296  75.5%     -   25s
     0     0    1.22299    0 1086    5.00000    1.22299  75.5%     -   25s
     0     0    1.22413    0 1188    5.00000    1.22413  75.5%     -   26s
     0     0    1.22415    0 1188    5.00000    1.22415  75.5%     -   26s
     0     0    1.22501    0 1199    5.00000    1.22501  75.5%     -   26s
     0     0    1.22523    0 1232    5.00000    1.22523  75.5%     -   27s
     0     0    1.22610    0 1175    5.00000    1.22610  75.5%     -   27s
     0     0    1.22615    0 1264    5.00000    1.22615  75.5%     -   28s
     0     0    1.22713    0 1299    5.00000    1.22713  75.5%     -   28s
     0     0    1.22714    0 1266    5.00000    1.22714  75.5%     -   29s
     0     0    1.22766    0 1335    5.00000    1.22766  75.4%     -   29s
     0     0    1.22791    0 1381    5.00000    1.22791  75.4%     -   29s
     0     0    1.22836    0 1433    5.00000    1.22836  75.4%     -   30s
     0     0    1.22886    0 1290    5.00000    1.22886  75.4%     -   31s
     0     0    1.22898    0 1355    5.00000    1.22898  75.4%     -   31s
     0     0    1.22946    0 1512    5.00000    1.22946  75.4%     -   32s
     0     0    1.22949    0 1376    5.00000    1.22949  75.4%     -   32s
     0     0    1.22989    0 1378    5.00000    1.22989  75.4%     -   33s
     0     0    1.22990    0 1242    5.00000    1.22990  75.4%     -   34s
     0     2    1.22995    0 1242    5.00000    1.22995  75.4%     -   39s
     2     4    1.71919    1  516    5.00000    1.23523  75.3%  6302   40s
    23    25    2.00000   20  266    5.00000    1.23620  75.3%  1368   45s
H   26    26                       4.0000000    1.23620  69.1%  1261   46s
    38    40    1.88763   32  428    4.00000    1.23620  69.1%  1232   50s
    66    68    1.39199   60  507    4.00000    1.23620  69.1%   852   55s
   160   153    1.84274    3  435    4.00000    1.24198  69.0%   536   60s
   246   239    2.14736   89  161    4.00000    1.24198  69.0%   430   65s
   324   305    2.00000   41  219    4.00000    1.24630  68.8%   416   70s
   417   386    2.00000   12  278    4.00000    1.24877  68.8%   376   75s
   493   460    3.00000   84  168    4.00000    1.24877  68.8%   364   80s
   538   494    2.00000   42 1242    4.00000    1.24913  68.8%   370   93s
   540   495    1.39965   64  666    4.00000    1.24913  68.8%   369  104s
   541   496    2.00000   27  634    4.00000    1.37759  65.6%   368  109s
   542   497    2.00000   42  583    4.00000    1.38656  65.3%   367  111s
   543   497    1.54912  107  669    4.00000    1.47172  63.2%   367  117s
   544   498    2.00000   24  678    4.00000    1.49334  62.7%   366  120s
   545   499    2.00000   43  733    4.00000    1.50413  62.4%   365  125s
   548   501    2.00465   47  806    4.00000    1.51107  62.2%   363  130s
   551   503    2.06880   45  905    4.00000    1.51456  62.1%   361  136s
   553   504    2.00000   16  874    4.00000    1.51752  62.1%   360  140s
   557   507    2.04272   52  922    4.00000    1.52085  62.0%   357  147s
   559   508    2.00000   20  878    4.00000    1.52247  61.9%   356  150s
   566   514    2.00000   17  665    4.00000    1.52247  61.9%   607  163s
   567   515    2.52793   99  654    4.00000    1.52247  61.9%   606  169s
   568   516    2.00000   32  855    4.00000    1.52247  61.9%   605  174s
   569   516    2.11502  105  890    4.00000    1.52307  61.9%   604  180s
   572   518    2.00000    9  896    4.00000    1.52499  61.9%   601  185s
   575   520    2.06024   36  938    4.00000    1.52499  61.9%   598  191s
   578   522    2.38108   93  910    4.00000    1.53014  61.7%   595  195s
   581   524    2.06024   36  904    4.00000    1.53338  61.7%   592  201s
   583   526    2.06142   42  978    4.00000    1.53440  61.6%   589  205s
   586   528    2.00000   20 1054    4.00000    1.53582  61.6%   586  210s
   589   530    1.62470  117 1016    4.00000    1.53678  61.6%   583  216s
   590   530    2.00000   44 1016    4.00000    1.53678  61.6%   583  222s
   591   531    2.00000   74 1016    4.00000    1.54537  61.4%   582  230s
   598   538    1.56400   24  618    4.00000    1.55639  61.1%   851  235s
   615   549    2.04523   32  373    4.00000    1.58965  60.3%   901  240s
   631   560    2.18855   40  440    4.00000    1.70079  57.5%   945  245s
   650   572    1.77879   50  456    4.00000    1.77456  55.6%   984  250s
   672   587    1.88297   61  461    4.00000    1.88000  53.0%  1028  255s
   690   599    2.06826   70  480    4.00000    2.00000  50.0%  1062  260s
   717   617    2.50540   83  212    4.00000    2.00000  50.0%  1093  265s
   767   643    2.89282  108  285    4.00000    2.00000  50.0%  1113  270s
   919   606    2.00795   40  253    4.00000    2.00795  49.8%   984  275s
   972   639    2.30000   67  242    4.00000    2.04653  48.8%  1011  280s
  1044   667    2.64269  103  170    4.00000    2.04653  48.8%  1016  290s
  1088   663    3.00000   38  182    4.00000    2.05056  48.7%  1019  295s
  1105   675    2.33333   47  316    4.00000    2.05056  48.7%  1048  300s
  1132   687     cutoff   60         4.00000    2.05056  48.7%  1070  305s
  1191   677    2.38676   33  247    4.00000    2.05150  48.7%  1082  310s
  1327   634    2.07686   26  440    4.00000    2.05155  48.7%   987  315s
  1354   652    2.68994   39  169    4.00000    2.05155  48.7%  1011  320s
  1383   671    2.30951   54  209    4.00000    2.05155  48.7%  1022  327s
  1410   688    2.87420   67  239    4.00000    2.05155  48.7%  1034  330s
  1490   678    2.77864   42  212    4.00000    2.06253  48.4%  1020  335s
  1557   667    2.27273   53  236    4.00000    2.06496  48.4%  1012  340s
  1600   683    2.94225   74  165    4.00000    2.06496  48.4%  1025  345s
  1682   704    2.33333   36  254    4.00000    2.06748  48.3%  1004  350s
  1747   710    2.28234   42  309    4.00000    2.06939  48.3%   991  355s
  1836   731    3.00000   43   98    4.00000    2.06942  48.3%   973  360s
  1899   745    2.79199   40  234    4.00000    2.07174  48.2%   960  365s
  1940   768    3.00000   77  296    4.00000    2.07174  48.2%   954  370s
  1980   783    3.00000   49  415    4.00000    2.07195  48.2%   952  375s
  2055   814    2.34839   38  247    4.00000    2.07195  48.2%   935  380s
  2153   804    2.23694   41  548    4.00000    2.08716  47.8%   921  385s
  2258   879    2.54255   27  151    4.00000    2.09996  47.5%   898  390s
  2280   889    3.00000   43   72    4.00000    2.09996  47.5%   894  395s
  2380   934    2.14443   44  378    4.00000    2.11147  47.2%   878  400s
  2483   980    3.00000   44  127    4.00000    2.11987  47.0%   862  405s
  2557  1022    2.84615   30  171    4.00000    2.12210  46.9%   854  410s
  2664  1112    3.00000   68  243    4.00000    2.12431  46.9%   835  415s
  2736  1146    2.50000   40  324    4.00000    2.12643  46.8%   834  420s
  2801  1195    2.61112   34  173    4.00000    2.12925  46.8%   832  425s
  2925  1245    2.85715   52  264    4.00000    2.13690  46.6%   814  430s
  2986  1274    2.93100   28  219    4.00000    2.13959  46.5%   808  435s
  3077  1321    2.69013   27  319    4.00000    2.14212  46.4%   798  440s
  3153  1373    2.52174   78  267    4.00000    2.14450  46.4%   791  446s
  3209  1401    3.00000   29  425    4.00000    2.14695  46.3%   788  450s
  3279  1425     cutoff   44         4.00000    2.14791  46.3%   784  455s
  3348  1457    2.29478   41  340    4.00000    2.14989  46.3%   784  460s
  3371  1480    2.73508   52  196    4.00000    2.14989  46.3%   795  465s
  3393  1496    3.00000   63  250    4.00000    2.14989  46.3%   800  471s
  3418  1511    2.67408   76  262    4.00000    2.14989  46.3%   803  475s
  3471  1516    2.80000   33  227    4.00000    2.15024  46.2%   804  480s
  3539  1553    3.00000   30  212    4.00000    2.15721  46.1%   799  485s
  3602  1562    2.76883   32  199    4.00000    2.16579  45.9%   799  490s
  3672  1603    3.00000   46  123    4.00000    2.16769  45.8%   792  495s
  3736  1641    2.66667   38  149    4.00000    2.17203  45.7%   788  500s
  3822  1664    2.23755   52  387    4.00000    2.17812  45.5%   783  505s
  3883  1713    2.75000   48  134    4.00000    2.17865  45.5%   776  510s
  3929  1740    2.77384   44  324    4.00000    2.18011  45.5%   775  515s
  3994  1788    3.00000   64  110    4.00000    2.18170  45.5%   769  520s
  4059  1830    2.41513   49  261    4.00000    2.18544  45.4%   765  532s
  4088  1859    3.00000   78  175    4.00000    2.18544  45.4%   762  535s
  4189  1920    2.65133   66  245    4.00000    2.19382  45.2%   753  540s
  4253  1975    2.79267   83  210    4.00000    2.19425  45.1%   746  545s
  4289  1994    2.61766   36  189    4.00000    2.19471  45.1%   747  550s
  4362  2039    2.50000   60  250    4.00000    2.19523  45.1%   746  555s
  4397  2060    2.80000   77  115    4.00000    2.19523  45.1%   750  560s
  4482  2095    2.78331   48  111    4.00000    2.19888  45.0%   745  565s
  4564  2133    2.33333   41  356    4.00000    2.20015  45.0%   742  570s
  4645  2176    2.21787   41  395    4.00000    2.20714  44.8%   738  577s
  4659  2182    3.00000   25  222    4.00000    2.20858  44.8%   740  580s
  4726  2225    2.69836   51  250    4.00000    2.20918  44.8%   737  585s
  4784  2247    3.00000   49  195    4.00000    2.21153  44.7%   735  590s
  4851  2267    3.00000   58  165    4.00000    2.21465  44.6%   735  595s
H 4924     3                       3.0000000    2.21714  26.1%   732  600s

Cutting planes:
  Cover: 45
  Implied bound: 94
  Clique: 1
  MIR: 103
  Mixing: 3
  Flow cover: 71
  GUB cover: 81
  Zero half: 19
  RLT: 166
  Relax-and-lift: 69
  BQP: 238

Explored 4925 nodes (3663763 simplex iterations) in 600.56 seconds (798.71 work units)
Thread count was 1 (of 16 available processors)

Solution count 10: 3 4 5 ... 13

Optimal solution found (tolerance 1.00e-04)
Best objective 3.000000000000e+00, best bound 3.000000000000e+00, gap 0.0000%

User-callback calls 106874, time in user-callback 0.15 sec

 sepatime0 0 0
3.0
Stat(MathOptInterface.OPTIMAL, 3.0, 3.0, 0.0, 0.0, 1.324333, 600.5606620311737, 4925, Main.CFLG.LEFPAD, "", #undef)
